c User generated cnf file
p cnf 12 52
-2 4 3 0 
8 2 -3 0 
8 5 -11 0 
11 -12 7 0 
10 -3 9 0 
4 4 -10 0 
4 4 -2 0 
11 -10 12 0 
-11 4 6 0 
-3 10 1 0 
11 -12 6 0 
5 1 -7 0 
-6 4 10 0 
-7 2 9 0 
11 3 -4 0 
6 5 -8 0 
2 -10 3 0 
-12 3 6 0 
-2 10 9 0 
1 -10 12 0 
-8 11 2 0 
-12 6 2 0 
9 -12 10 0 
9 -1 3 0 
11 -11 10 0 
1 1 -7 0 
-3 8 4 0 
-11 1 8 0 
-12 11 4 0 
11 11 -4 0 
12 -11 12 0 
1 2 -11 0 
-2 4 3 0 
10 9 -9 0 
8 -12 5 0 
1 1 -3 0 
11 -11 3 0 
-9 10 6 0 
9 -1 2 0 
-11 10 9 0 
1 -6 2 0 
9 -2 8 0 
-1 12 7 0 
12 -9 1 0 
7 12 -3 0 
3 -9 8 0 
7 -11 11 0 
11 -10 5 0 
6 -1 1 0 
-5 2 3 0 
1 -7 9 0 
7 11 -1 0 
